fixed_width = 13;
permut = 14;
in_shape = [{1}, {2,3}, {4,5}, {6,7}, {8,9}, {10,11}, {3,2}, {12}, {13,14}];
lower_limit = 13;
num_circuits = 9;
piece_height = [3, 4, 5, 6, 7, 8, 3, 4, 6];
piece_width = [3, 3, 3, 3, 3, 3, 4, 4, 7];
rect_offset = [|0, 0|0, 0|0, 0|0, 0|0, 0|0, 0|0, 0|0, 0|0, 0|0, 0|0, 0|0, 0|0, 0|0, 0|];
rect_size = [|3, 3|3, 4|4, 3|3, 5|5, 3|3, 6|6, 3|3, 7|7, 3|3, 8|8, 3|4, 4|7, 6|6, 7|];
shape = [{1}, {2}, {3}, {4}, {5}, {6}, {7}, {8}, {9}, {10}, {11}, {12}, {13}, {14}];
